20
80.0
0 19 63.89 4.01
1 18 45.78 5.49
2 17 39.53 4.43
3 16 54.06 5.69
4 15 49.13 6.28
5 14 52.14 3.66
6 13 48.0 4.0
7 12 40.83 3.85
8 11 46.36 5.31
9 10 51.9 4.79
10 9 52.44 4.64
11 8 61.5 5.77
12 7 37.0 6.02
13 6 61.83 4.9
14 5 74.6 6.14
15 4 42.75 4.53
16 3 85.0 2.91
17 2 18.5 7.7
18 1 28.0 5.16
